%Chk=MMP1_zn_large_mk.chk
%Mem=3000MB
%NProcShared=2
# B3LYP/6-31G* Integral=(Grid=UltraFine) Pop(MK,ReadRadii)
IOp(6/33=2,6/42=6)
 
CLR
 
2  1
H          14.850   28.007   19.559
C          14.074   27.252   19.436
C          14.237   26.137   20.463
O          13.262   25.732   21.065
H          14.067   26.915   18.400
H          13.089   27.674   19.635
N          15.453   25.713   20.745
C          15.700   24.694   21.746
C          15.462   25.289   23.169
O          14.704   24.633   23.951
C          17.226   24.272   21.691
C          17.678   23.379   22.791
N          17.792   22.006   22.544
C          18.041   23.473   24.097
C          18.212   21.493   23.702
N          18.379   22.282   24.766
H          16.295   26.064   20.289
H          15.039   23.849   21.553
H          17.414   23.774   20.740
H          17.836   25.175   21.704
H          17.598   21.509   21.675
H          18.069   24.427   24.603
H          18.418   20.436   23.779
N          15.923   26.491   23.526
C          15.726   27.009   24.868
C          14.199   27.251   25.129
O          13.821   26.976   26.297
H          16.251   27.939   25.085
H          16.433   27.116   22.902
H          16.144   26.245   25.524
N          13.507   27.781   24.124
C          12.031   28.009   24.428
C          11.376   26.674   24.630
O          10.295   26.675   25.323
H          11.647   28.586   23.587
H          13.850   28.043   23.200
H          11.835   28.567   25.344
N          11.821   25.567   24.081
C          11.184   24.243   24.341
C          11.287   24.052   25.822
O          10.316   23.655   26.485
H          12.620   25.530   23.448
H          10.145   24.233   24.012
H          11.696   23.445   23.803
N          12.416   24.330   26.499
C          12.542   24.193   27.929
C          11.594   25.168   28.655
O          11.020   24.754   29.684
C          13.964   24.464   28.479
C          14.967   23.426   28.076
N          14.847   22.059   28.210
C          16.184   23.717   27.522
C          15.977   21.506   27.751
N          16.811   22.469   27.364
H          13.268   24.659   26.045
H          12.292   23.149   28.120
H          14.301   25.439   28.128
H          13.921   24.514   29.567
H          14.043   21.559   28.590
H          16.576   24.690   27.264
H          16.180   20.446   27.702
N          11.517   26.398   28.198
C          10.636   27.396   28.824
H           9.594   27.076   28.829
H          10.688   28.314   28.239
H          12.047   26.744   27.398
H          10.969   27.535   29.853
H          12.288   18.412   28.209
C          13.278   18.100   28.542
C          14.017   17.705   27.258
O          13.533   17.870   26.082
H          13.325   17.309   29.290
H          13.734   18.929   29.084
N          15.203   17.163   27.447
C          15.979   16.758   26.258
C          15.505   15.542   25.504
O          14.916   14.647   26.139
C          17.478   16.550   26.604
C          18.105   17.913   26.924
N          19.009   18.126   27.892
C          17.917   19.088   26.320
C          19.344   19.465   27.891
N          18.693   20.104   26.907
H          15.644   16.993   28.351
H          15.820   17.603   25.588
H          17.579   15.879   27.457
H          17.997   16.083   25.767
H          19.385   17.418   28.522
H          17.251   19.240   25.483
H          20.031   19.931   28.582
N          15.730   15.453   24.240
C          15.386   14.325   23.344
H          16.275   13.731   23.133
H          15.003   14.709   22.399
H          16.194   16.208   23.735
H          14.633   13.710   23.837
Zn         18.709   22.099   26.605
 
Zn 1.373
 
 
