 $SYSTEM MEMDDI=400 MWORDS=200 $END
 $CONTRL DFTTYP=B3LYP ICHARG=2 MULT=1 $END
 $ELPOT IEPOT=1 WHERE=PDC $END
 $PDC PTSEL=CONNOLLY CONSTR=NONE $END
 $BASIS GBASIS=N31 NGAUSS=6 NDFUNC=1 $END
 $DATA
Cluster/6-31G(d)
C1
H          1.0    14.850   28.007   19.559
C          6.0    14.074   27.252   19.436
C          6.0    14.237   26.137   20.463
O          8.0    13.262   25.732   21.065
H          1.0    14.067   26.915   18.400
H          1.0    13.089   27.674   19.635
N          7.0    15.453   25.713   20.745
C          6.0    15.700   24.694   21.746
C          6.0    15.462   25.289   23.169
O          8.0    14.704   24.633   23.951
C          6.0    17.226   24.272   21.691
C          6.0    17.678   23.379   22.791
N          7.0    17.792   22.006   22.544
C          6.0    18.041   23.473   24.097
C          6.0    18.212   21.493   23.702
N          7.0    18.379   22.282   24.766
H          1.0    16.295   26.064   20.289
H          1.0    15.039   23.849   21.553
H          1.0    17.414   23.774   20.740
H          1.0    17.836   25.175   21.704
H          1.0    17.598   21.509   21.675
H          1.0    18.069   24.427   24.603
H          1.0    18.418   20.436   23.779
N          7.0    15.923   26.491   23.526
C          6.0    15.726   27.009   24.868
C          6.0    14.199   27.251   25.129
O          8.0    13.821   26.976   26.297
H          1.0    16.251   27.939   25.085
H          1.0    16.433   27.116   22.902
H          1.0    16.144   26.245   25.524
N          7.0    13.507   27.781   24.124
C          6.0    12.031   28.009   24.428
C          6.0    11.376   26.674   24.630
O          8.0    10.295   26.675   25.323
H          1.0    11.647   28.586   23.587
H          1.0    13.850   28.043   23.200
H          1.0    11.835   28.567   25.344
N          7.0    11.821   25.567   24.081
C          6.0    11.184   24.243   24.341
C          6.0    11.287   24.052   25.822
O          8.0    10.316   23.655   26.485
H          1.0    12.620   25.530   23.448
H          1.0    10.145   24.233   24.012
H          1.0    11.696   23.445   23.803
N          7.0    12.416   24.330   26.499
C          6.0    12.542   24.193   27.929
C          6.0    11.594   25.168   28.655
O          8.0    11.020   24.754   29.684
C          6.0    13.964   24.464   28.479
C          6.0    14.967   23.426   28.076
N          7.0    14.847   22.059   28.210
C          6.0    16.184   23.717   27.522
C          6.0    15.977   21.506   27.751
N          7.0    16.811   22.469   27.364
H          1.0    13.268   24.659   26.045
H          1.0    12.292   23.149   28.120
H          1.0    14.301   25.439   28.128
H          1.0    13.921   24.514   29.567
H          1.0    14.043   21.559   28.590
H          1.0    16.576   24.690   27.264
H          1.0    16.180   20.446   27.702
N          7.0    11.517   26.398   28.198
C          6.0    10.636   27.396   28.824
H          1.0     9.594   27.076   28.829
H          1.0    10.688   28.314   28.239
H          1.0    12.047   26.744   27.398
H          1.0    10.969   27.535   29.853
H          1.0    12.288   18.412   28.209
C          6.0    13.278   18.100   28.542
C          6.0    14.017   17.705   27.258
O          8.0    13.533   17.870   26.082
H          1.0    13.325   17.309   29.290
H          1.0    13.734   18.929   29.084
N          7.0    15.203   17.163   27.447
C          6.0    15.979   16.758   26.258
C          6.0    15.505   15.542   25.504
O          8.0    14.916   14.647   26.139
C          6.0    17.478   16.550   26.604
C          6.0    18.105   17.913   26.924
N          7.0    19.009   18.126   27.892
C          6.0    17.917   19.088   26.320
C          6.0    19.344   19.465   27.891
N          7.0    18.693   20.104   26.907
H          1.0    15.644   16.993   28.351
H          1.0    15.820   17.603   25.588
H          1.0    17.579   15.879   27.457
H          1.0    17.997   16.083   25.767
H          1.0    19.385   17.418   28.522
H          1.0    17.251   19.240   25.483
H          1.0    20.031   19.931   28.582
N          7.0    15.730   15.453   24.240
C          6.0    15.386   14.325   23.344
H          1.0    16.275   13.731   23.133
H          1.0    15.003   14.709   22.399
H          1.0    16.194   16.208   23.735
H          1.0    14.633   13.710   23.837
Zn        30.0    18.709   22.099   26.605
 $END
