%Chk=MMP1_zn_small_opt.chk
%Mem=3000MB
%NProcShared=2
# B3LYP/6-31G* Geom=PrintInputOrient Integral=(Grid=UltraFine) Opt
 
CLR
 
2  1
H          15.514   25.460   20.993
C          15.700   24.694   21.746
H          15.534   25.110   22.740
C          17.226   24.272   21.691
C          17.678   23.379   22.791
N          17.792   22.006   22.544
C          18.041   23.473   24.097
C          18.212   21.493   23.702
N          18.379   22.282   24.766
H          15.039   23.849   21.553
H          17.414   23.774   20.740
H          17.836   25.175   21.704
H          17.598   21.509   21.675
H          18.069   24.427   24.603
H          18.418   20.436   23.779
H          12.447   24.297   26.848
C          12.542   24.193   27.929
H          11.872   24.882   28.442
C          13.964   24.464   28.479
C          14.967   23.426   28.076
N          14.847   22.059   28.210
C          16.184   23.717   27.522
C          15.977   21.506   27.751
N          16.811   22.469   27.364
H          12.292   23.149   28.120
H          14.301   25.439   28.128
H          13.921   24.514   29.567
H          14.043   21.559   28.590
H          16.576   24.690   27.264
H          16.180   20.446   27.702
H          15.406   17.057   27.136
C          15.979   16.758   26.258
H          15.636   15.879   25.713
C          17.478   16.550   26.604
C          18.105   17.913   26.924
N          19.009   18.126   27.892
C          17.917   19.088   26.320
C          19.344   19.465   27.891
N          18.693   20.104   26.907
H          15.820   17.603   25.588
H          17.579   15.879   27.457
H          17.997   16.083   25.767
H          19.385   17.418   28.522
H          17.251   19.240   25.483
H          20.031   19.931   28.582
Zn         18.709   22.099   26.605
 
 
